Minimize
	value: tt

Subject to
tt + 2000 s_1_1 > 0
tt - t_1_1 - 2000.000000 s_1_1 > -1995.659900
tt + 2000 s_2_1 > 0
tt - t_2_1 - 2000.000000 s_2_1 > -1993.163400
tt + 2000 s_1_2 > 0
tt - t_1_2 - 2000.000000 s_1_2 > -1993.358900
tt + 2000 s_2_2 > 0
tt - t_2_2 - 2000.000000 s_2_2 > -1988.511400
tt + 2000 s_1_3 > 0
tt - t_1_3 - 2000.000000 s_1_3 > -1992.258600
tt + 2000 s_2_3 > 0
tt - t_2_3 - 2000.000000 s_2_3 > -1988.263700
tt + 2000 s_1_4 > 0
tt - t_1_4 - 2000.000000 s_1_4 > -1986.169500
tt + 2000 s_2_4 > 0
tt - t_2_4 - 2000.000000 s_2_4 > -1979.452100
tt + 2000 s_1_5 > 0
tt - t_1_5 - 2099.552129 s_1_5 + 99.552129 s_1_4 > -1998.976100
tt + 2000 s_2_5 > 0
tt - t_2_5 - 2199.104258 s_2_5 + 199.104258 s_2_4 > -1997.383333
s_1_1 + s_2_1  = 1
s_1_2 + s_2_2  = 1
s_1_3 + s_2_3  = 1
s_1_4 + s_2_4  = 1
s_1_5 + s_2_5  = 1
t_1_1 - t_1_2 + 2000.000000 u_1_1_2 > 6.641100
t_1_2 - t_1_1 - 2000.000000 u_1_1_2 > -1995.659900
t_2_1 - t_2_2 + 2000.000000 u_2_1_2 > 11.488600
t_2_2 - t_2_1 - 2000.000000 u_2_1_2 > -1993.163400
t_1_1 - t_1_3 + 2000.000000 u_1_1_3 > 7.741400
t_1_3 - t_1_1 - 2000.000000 u_1_1_3 > -1995.659900
t_2_1 - t_2_3 + 2000.000000 u_2_1_3 > 11.736300
t_2_3 - t_2_1 - 2000.000000 u_2_1_3 > -1993.163400
t_1_1 - t_1_4 + 2000.000000 u_1_1_4 > 13.830500
t_1_4 - t_1_1 - 2000.000000 u_1_1_4 > -1995.659900
t_2_1 - t_2_4 + 2000.000000 u_2_1_4 > 20.547900
t_2_4 - t_2_1 - 2000.000000 u_2_1_4 > -1993.163400
t_1_5 - t_1_1 - 2000.000000 s_1_1 > -1985.961811
t_1_5 - t_2_1 - 2000.000000 s_2_1 > -1973.767222
t_2_5 - t_1_1 - 2000.000000 s_1_1 > -1985.961811
t_2_5 - t_2_1 - 2000.000000 s_2_1 > -1973.767222
t_1_2 - t_1_1 + 2000.000000 u_1_2_1 > 4.340100
t_1_1 - t_1_2 - 2000.000000 u_1_2_1 > -1993.358900
t_2_2 - t_2_1 + 2000.000000 u_2_2_1 > 6.836600
t_2_1 - t_2_2 - 2000.000000 u_2_2_1 > -1988.511400
t_1_2 - t_1_3 + 2000.000000 u_1_2_3 > 7.741400
t_1_3 - t_1_2 - 2000.000000 u_1_2_3 > -1993.358900
t_2_2 - t_2_3 + 2000.000000 u_2_2_3 > 11.736300
t_2_3 - t_2_2 - 2000.000000 u_2_2_3 > -1988.511400
t_1_2 - t_1_4 + 2000.000000 u_1_2_4 > 13.830500
t_1_4 - t_1_2 - 2000.000000 u_1_2_4 > -1993.358900
t_2_2 - t_2_4 + 2000.000000 u_2_2_4 > 20.547900
t_2_4 - t_2_2 - 2000.000000 u_2_2_4 > -1988.511400
t_1_5 - t_1_2 - 2000.000000 s_1_2 > -1983.660811
t_1_5 - t_2_2 - 2000.000000 s_2_2 > -1969.115222
t_2_5 - t_1_2 - 2000.000000 s_1_2 > -1983.660811
t_2_5 - t_2_2 - 2000.000000 s_2_2 > -1969.115222
t_1_3 - t_1_1 + 2000.000000 u_1_3_1 > 4.340100
t_1_1 - t_1_3 - 2000.000000 u_1_3_1 > -1992.258600
t_2_3 - t_2_1 + 2000.000000 u_2_3_1 > 6.836600
t_2_1 - t_2_3 - 2000.000000 u_2_3_1 > -1988.263700
t_1_3 - t_1_2 + 2000.000000 u_1_3_2 > 6.641100
t_1_2 - t_1_3 - 2000.000000 u_1_3_2 > -1992.258600
t_2_3 - t_2_2 + 2000.000000 u_2_3_2 > 11.488600
t_2_2 - t_2_3 - 2000.000000 u_2_3_2 > -1988.263700
t_1_3 - t_1_4 + 2000.000000 u_1_3_4 > 13.830500
t_1_4 - t_1_3 - 2000.000000 u_1_3_4 > -1992.258600
t_2_3 - t_2_4 + 2000.000000 u_2_3_4 > 20.547900
t_2_4 - t_2_3 - 2000.000000 u_2_3_4 > -1988.263700
t_1_5 - t_1_3 - 2000.000000 s_1_3 > -1982.560511
t_1_5 - t_2_3 - 2000.000000 s_2_3 > -1968.867522
t_2_5 - t_1_3 - 2000.000000 s_1_3 > -1982.560511
t_2_5 - t_2_3 - 2000.000000 s_2_3 > -1968.867522
t_1_4 - t_1_1 + 2000.000000 u_1_4_1 > 4.340100
t_1_1 - t_1_4 - 2000.000000 u_1_4_1 > -1986.169500
t_2_4 - t_2_1 + 2000.000000 u_2_4_1 > 6.836600
t_2_1 - t_2_4 - 2000.000000 u_2_4_1 > -1979.452100
t_1_4 - t_1_2 + 2000.000000 u_1_4_2 > 6.641100
t_1_2 - t_1_4 - 2000.000000 u_1_4_2 > -1986.169500
t_2_4 - t_2_2 + 2000.000000 u_2_4_2 > 11.488600
t_2_2 - t_2_4 - 2000.000000 u_2_4_2 > -1979.452100
t_1_4 - t_1_3 + 2000.000000 u_1_4_3 > 7.741400
t_1_3 - t_1_4 - 2000.000000 u_1_4_3 > -1986.169500
t_2_4 - t_2_3 + 2000.000000 u_2_4_3 > 11.736300
t_2_3 - t_2_4 - 2000.000000 u_2_4_3 > -1979.452100
t_1_5 - t_1_4 - 2000.000000 s_1_4 > -1976.471411
t_1_5 - t_2_4 - 2000.000000 s_2_4 > -1960.055922
t_2_5 - t_1_4 - 2000.000000 s_1_4 > -1976.471411
t_2_5 - t_2_4 - 2000.000000 s_2_4 > -1960.055922
t_1_5 - t_1_1 - 2000.000000 s_1_1 > -1985.961811
t_1_5 - t_2_1 - 2000.000000 s_2_1 > -1973.767222
t_2_5 - t_1_1 - 2000.000000 s_1_1 > -1985.961811
t_2_5 - t_2_1 - 2000.000000 s_2_1 > -1973.767222
t_1_5 - t_1_2 - 2000.000000 s_1_2 > -1983.660811
t_1_5 - t_2_2 - 2000.000000 s_2_2 > -1969.115222
t_2_5 - t_1_2 - 2000.000000 s_1_2 > -1983.660811
t_2_5 - t_2_2 - 2000.000000 s_2_2 > -1969.115222
t_1_5 - t_1_3 - 2000.000000 s_1_3 > -1982.560511
t_1_5 - t_2_3 - 2000.000000 s_2_3 > -1968.867522
t_2_5 - t_1_3 - 2000.000000 s_1_3 > -1982.560511
t_2_5 - t_2_3 - 2000.000000 s_2_3 > -1968.867522
t_1_5 - t_1_4 - 2000.000000 s_1_4 > -1976.471411
t_1_5 - t_2_4 - 2000.000000 s_2_4 > -1960.055922
t_2_5 - t_1_4 - 2000.000000 s_1_4 > -1976.471411
t_2_5 - t_2_4 - 2000.000000 s_2_4 > -1960.055922
Binary
s_1_1
s_2_1
s_1_2
s_2_2
s_1_3
s_2_3
s_1_4
s_2_4
s_1_5
s_2_5
u_1_1_2
u_2_1_2
u_1_1_3
u_2_1_3
u_1_1_4
u_2_1_4
u_1_2_1
u_2_2_1
u_1_2_3
u_2_2_3
u_1_2_4
u_2_2_4
u_1_3_1
u_2_3_1
u_1_3_2
u_2_3_2
u_1_3_4
u_2_3_4
u_1_4_1
u_2_4_1
u_1_4_2
u_2_4_2
u_1_4_3
u_2_4_3

End
